# 15480
param k := 6;
param n := 50;
param s := 1;
set E :=  (0,15) (0,26) (1,7) (1,35) (2,34) (3,15) (3,21) (3,28) (3,34) (4,17) (4,22) (4,33) (4,39) (4,45) (5,19) (5,23) (5,45) (6,18) (6,20) (6,26) (7,21) (7,43) (8,44) (9,28) (10,27) (10,28) (10,37) (11,21) (12,14) (12,42) (13,14) (13,42) (14,39) (15,22) (15,29) (15,47) (16,40) (16,46) (17,31) (17,48) (18,21) (18,33) (20,30) (20,41) (21,33) (21,42) (22,31) (23,45) (23,49) (24,40) (24,44) (24,47) (25,42) (27,42) (28,32) (30,37) (31,42) (32,45) (33,41) (34,36) (34,42) (34,46) (36,42) (37,39) (38,41) (39,49) (41,43);